NAME : random_15
COMMENT : 40 random nodes
TYPE : TSP
DIMENSION : 40
EDGE_WEIGHT_TYPE : EUC_2D
NODE_COORD_SECTION
1 957 352
2 124 676
3 401 168
4 157 249
5 481 833
6 241 486
7 161 958
8 595 318
9 184 411
10 213 271
11 551 222
12 461 815
13 29 151
14 441 777
15 582 960
16 910 352
17 670 687
18 624 33
19 120 461
20 762 31
21 753 256
22 391 303
23 674 378
24 286 660
25 410 50
26 572 866
27 694 911
28 12 766
29 848 220
30 423 951
31 807 308
32 366 340
33 316 288
34 442 53
35 392 413
36 659 567
37 956 156
38 775 414
39 442 864
40 418 844
EOF